NAME : XML100_1266_12
DIMENSION : 101
NB_CLUSTERS : 3
CLUSTERING_ALG : KMeans
CLUSTERING_PARAMS : k(2)
CLUSTERS
1 0
2 1 3 5 6 9 10 11 12 13 18 19 20 21 22 23 24 25 26 27 28 29 30 31 33 34 35 36 37 39 40 41 42 43 44 45 46 47 48 50 51 56 57 58 59 60 61 62 63 64 65 66 68 69 71 72 73 74 75 77 78 79 81 84 85 86 89 91 92 93 94 95 97 98 99
3 2 4 7 8 14 15 16 17 32 38 49 52 53 54 55 67 70 76 80 82 83 87 88 90 96 100
EOF